c A SAT instance generated from a 3-CNF formula that had 60 clauses and 10 variables
p cnf 10 60
5 8 4 0
-7 -6 9 0
7 5 -4 0
-3 4 9 0
-7 5 8 0
-10 -6 -7 0
-7 -5 1 0
3 -8 -9 0
-7 2 -3 0
-4 1 -5 0
7 -5 8 0
-9 6 -7 0
-3 -10 9 0
6 7 3 0
-4 8 9 0
1 8 6 0
-9 -6 -3 0
5 9 -10 0
9 3 8 0
9 -10 -1 0
-1 -3 -7 0
10 8 -5 0
10 -2 -3 0
1 4 -7 0
-4 1 10 0
-8 -9 -6 0
-9 6 5 0
6 -9 -8 0
6 -1 -7 0
7 -9 -5 0
-1 6 -7 0
-10 7 -8 0
-3 -1 -10 0
9 6 -7 0
5 -1 -10 0
-4 9 -2 0
6 -7 5 0
1 -10 4 0
1 -10 -7 0
10 5 2 0
-9 -5 -1 0
4 1 6 0
3 1 7 0
10 4 5 0
-8 -7 3 0
-5 -1 7 0
7 -9 -2 0
-9 7 5 0
-3 -4 6 0
-6 7 1 0
1 -5 -3 0
-7 5 10 0
5 -6 -8 0
-8 -4 -6 0
-1 -4 -8 0
10 -2 -7 0
5 9 1 0
-5 -4 9 0
-5 1 -3 0
-6 5 1 0
%
0

35 33 40 42 92 14 31 33 89 29
